certificates/rado_a15_c88_N31.cnf
c Rad2 upper bound instance: x1 + 15*x2 - x3 = 88, interval [1,31]
p cnf 31 128
1 3 6 0
-1 -3 -6 0
1 7 18 0
-1 -7 -18 0
2 4 6 0
-2 -4 -6 0
2 7 19 0
-2 -7 -19 0
3 5 6 0
-3 -5 -6 0
3 7 20 0
-3 -7 -20 0
4 6 0
-4 -6 0
4 7 21 0
-4 -7 -21 0
5 6 7 0
-5 -6 -7 0
5 7 22 0
-5 -7 -22 0
6 8 0
-6 -8 0
6 7 23 0
-6 -7 -23 0
6 7 9 0
-6 -7 -9 0
7 24 0
-7 -24 0
6 8 10 0
-6 -8 -10 0
7 8 25 0
-7 -8 -25 0
6 9 11 0
-6 -9 -11 0
7 9 26 0
-7 -9 -26 0
6 10 12 0
-6 -10 -12 0
7 10 27 0
-7 -10 -27 0
6 11 13 0
-6 -11 -13 0
7 11 28 0
-7 -11 -28 0
6 12 14 0
-6 -12 -14 0
7 12 29 0
-7 -12 -29 0
6 13 15 0
-6 -13 -15 0
7 13 30 0
-7 -13 -30 0
1 5 14 0
-1 -5 -14 0
6 14 16 0
-6 -14 -16 0
7 14 31 0
-7 -14 -31 0
2 5 15 0
-2 -5 -15 0
6 15 17 0
-6 -15 -17 0
3 5 16 0
-3 -5 -16 0
6 16 18 0
-6 -16 -18 0
4 5 17 0
-4 -5 -17 0
6 17 19 0
-6 -17 -19 0
5 18 0
-5 -18 0
6 18 20 0
-6 -18 -20 0
5 6 19 0
-5 -6 -19 0
6 19 21 0
-6 -19 -21 0
5 7 20 0
-5 -7 -20 0
6 20 22 0
-6 -20 -22 0
5 8 21 0
-5 -8 -21 0
6 21 23 0
-6 -21 -23 0
5 9 22 0
-5 -9 -22 0
6 22 24 0
-6 -22 -24 0
5 10 23 0
-5 -10 -23 0
6 23 25 0
-6 -23 -25 0
5 11 24 0
-5 -11 -24 0
6 24 26 0
-6 -24 -26 0
5 12 25 0
-5 -12 -25 0
6 25 27 0
-6 -25 -27 0
5 13 26 0
-5 -13 -26 0
6 26 28 0
-6 -26 -28 0
5 14 27 0
-5 -14 -27 0
6 27 29 0
-6 -27 -29 0
5 15 28 0
-5 -15 -28 0
6 28 30 0
-6 -28 -30 0
1 4 29 0
-1 -4 -29 0
5 16 29 0
-5 -16 -29 0
6 29 31 0
-6 -29 -31 0
2 4 30 0
-2 -4 -30 0
5 17 30 0
-5 -17 -30 0
3 4 31 0
-3 -4 -31 0
5 18 31 0
-5 -18 -31 0
