certificates/rado_a15_c88_N31.drat
-29 -31 0
d -29 -6 -31 0
6 -31 0
-24 28 -6 0
-7 -31 0
-31 0
-6 0
4 0
8 0
29 0
-1 0
3 0
24 0
-7 0
18 0
23 0
9 0
14 0
5 0
0
